sat
(
  (define-fun C1_VM1 () Int
    0)
  (define-fun C2_VM6 () Int
    1)
  (define-fun C5_VM3 () Int
    0)
  (define-fun VM1Type () Int
    182)
  (define-fun VM2Type () Int
    225)
  (define-fun C2_VM2 () Int
    0)
  (define-fun PriceProv6 () Int
    126)
  (define-fun C1_VM5 () Int
    0)
  (define-fun C2_VM3 () Int
    0)
  (define-fun ProcProv4 () Int
    4)
  (define-fun C2_VM7 () Int
    0)
  (define-fun ProcProv6 () Int
    2)
  (define-fun C1_VM4 () Int
    0)
  (define-fun C3_VM7 () Int
    0)
  (define-fun VM5Type () Int
    225)
  (define-fun ProcProv7 () Int
    2)
  (define-fun C3_VM5 () Int
    0)
  (define-fun VM6Type () Int
    225)
  (define-fun StorageProv3 () Int
    2000)
  (define-fun C1_VM8 () Int
    0)
  (define-fun C5_VM4 () Int
    0)
  (define-fun StorageProv4 () Int
    2000)
  (define-fun C3_VM3 () Int
    0)
  (define-fun C3_VM6 () Int
    0)
  (define-fun C4_VM3 () Int
    0)
  (define-fun C4_VM8 () Int
    0)
  (define-fun ProcProv8 () Int
    4)
  (define-fun C1_VM7 () Int
    1)
  (define-fun PriceProv5 () Int
    126)
  (define-fun C1_VM2 () Int
    1)
  (define-fun C3_VM4 () Int
    1)
  (define-fun C2_VM4 () Int
    0)
  (define-fun C5_VM2 () Int
    0)
  (define-fun C3_VM2 () Int
    0)
  (define-fun C1_VM3 () Int
    1)
  (define-fun MemProv3 () Int
    3750)
  (define-fun VM7Type () Int
    225)
  (define-fun PriceProv8 () Int
    210)
  (define-fun MemProv5 () Int
    3750)
  (define-fun VM4Type () Int
    182)
  (define-fun C5_VM5 () Int
    0)
  (define-fun ProcProv2 () Int
    2)
  (define-fun C2_VM8 () Int
    0)
  (define-fun C5_VM8 () Int
    1)
  (define-fun C4_VM1 () Int
    0)
  (define-fun StorageProv7 () Int
    2000)
  (define-fun ProcProv3 () Int
    2)
  (define-fun MemProv1 () Int
    7500)
  (define-fun C2_VM5 () Int
    1)
  (define-fun PriceProv1 () Int
    210)
  (define-fun PriceProv3 () Int
    126)
  (define-fun MemProv4 () Int
    7500)
  (define-fun StorageProv8 () Int
    2000)
  (define-fun C3_VM1 () Int
    0)
  (define-fun C3_VM8 () Int
    0)
  (define-fun StorageProv6 () Int
    2000)
  (define-fun ProcProv1 () Int
    4)
  (define-fun C4_VM5 () Int
    0)
  (define-fun StorageProv1 () Int
    2000)
  (define-fun PriceProv4 () Int
    210)
  (define-fun C4_VM4 () Int
    0)
  (define-fun StorageProv2 () Int
    2000)
  (define-fun MemProv2 () Int
    3750)
  (define-fun PriceProv7 () Int
    126)
  (define-fun ProcProv5 () Int
    2)
  (define-fun C4_VM6 () Int
    0)
  (define-fun C5_VM1 () Int
    1)
  (define-fun C5_VM6 () Int
    0)
  (define-fun MemProv7 () Int
    3750)
  (define-fun C5_VM7 () Int
    0)
  (define-fun PriceProv2 () Int
    126)
  (define-fun C2_VM1 () Int
    0)
  (define-fun MemProv8 () Int
    7500)
  (define-fun StorageProv5 () Int
    2000)
  (define-fun VM3Type () Int
    225)
  (define-fun C1_VM6 () Int
    0)
  (define-fun VM8Type () Int
    182)
  (define-fun MemProv6 () Int
    3750)
  (define-fun C4_VM7 () Int
    0)
  (define-fun C4_VM2 () Int
    0)
)
(objectives
 ( 32)
 ((+ 0
   PriceProv1
   PriceProv2
   PriceProv3
   PriceProv4
   PriceProv5
   PriceProv6
   PriceProv7
   PriceProv8) 1260)
)
(:added-eqs                   81310
 :arith-eq-adapter            87736
 :arith-bound-propagations-lp 520
 :arith-conflicts             51
 :arith-diseq                 110280
 :arith-fixed-eqs             701
 :arith-lower                 125276
 :arith-make-feasible         68709
 :arith-max-columns           375
 :arith-max-rows              26
 :arith-upper                 100279
 :binary-propagations         243493
 :bv-bit2core                 847
 :bv-dynamic-diseqs           73438
 :bv->core-eq                 776
 :conflicts                   1678
 :decisions                   112519
 :del-clause                  105206
 :final-checks                33
 :max-memory                  65.46
 :maxsat-cores                8
 :memory                      63.68
 :minimized-lits              155
 :mk-bool-var                 180721
 :mk-clause                   107576
 :mk-clause-binary            10930
 :num-allocs                  1147880464
 :num-checks                  42
 :pb-conflicts                12
 :pb-predicates               7
 :pb-propagations             450
 :pb-resolves                 3
 :propagations                265378
 :restarts                    5
 :rlimit-count                6110874
 :time                        0.79
 :total-time                  0.81)
